100
300
238
228
224
224
221
220
219
218
216
213
213
212
210
209
201
199
199
198
197
196
194
189
188
186
185
185
184
184
183
183
179
175
174
171
170
168
167
166
165
165
165
163
160
159
155
155
155
154
154
145
144
140
140
140
137
131
129
127
127
123
122
121
119
111
110
109
109
108
107
107
103
102
93
91
91
88
87
86
86
85
82
82
81
80
79
78
78
78
77
77
76
75
75
74
72
70
67
66
63
62
